(set-info :origin "NTS benchmark converted to SMT-LIB2 using Eldarica (http://lara.epfl.ch/w/eldarica)")
(set-logic HORN)
(declare-fun main_qf (Int Int Int Int) Bool)
(declare-fun main_q3 (Int Int Int Int Int Int Int Int Int Int) Bool)
(declare-fun main_q2 (Int Int Int Int Int Int Int Int Int Int) Bool)
(declare-fun main_q1 (Int Int Int Int Int Int Int Int Int Int) Bool)
(declare-fun main_q0 (Int Int Int Int Int Int Int Int Int Int) Bool)
(declare-fun floodfill_q6 (Int Int Int Int Int Int Int Int Int Int Int Int Int Int) Bool)
(declare-fun floodfill_q7 (Int Int Int Int Int Int Int Int Int Int) Bool)
(declare-fun floodfill_q5 (Int Int Int Int Int Int Int Int Int Int Int Int Int Int) Bool)
(declare-fun floodfill_q2 (Int Int Int Int Int Int Int Int Int Int Int Int Int Int) Bool)
(declare-fun floodfill_q1 (Int Int Int Int Int Int Int Int Int Int Int Int Int Int) Bool)
(declare-fun floodfill_q3 (Int Int Int Int Int Int Int Int Int Int Int Int Int Int) Bool)
(declare-fun floodfill_q0 (Int Int Int Int Int Int Int Int Int Int Int Int Int Int) Bool)
(declare-fun floodfill_q4 (Int Int Int Int Int Int Int Int Int Int Int Int Int Int) Bool)
(assert(forall((?A Int)(?B Int)(?C Int)(?D Int)(?E Int)(?F Int)(?G Int)(?H Int)(?I Int)(?J Int)(?K Int)(?L Int))(=>(and (main_q3 ?E ?F ?G ?A ?B ?H ?I ?J ?K ?L)(not (= ?H 0))) (main_qf ?A ?B ?C ?D))))
(assert(not (exists((?A Int)(?B Int)(?C Int)(?D Int)(?E Int)(?F Int)(?G Int)(?H Int)(?I Int)(?J Int))(and (main_q3 ?A ?B ?C ?D ?E ?F ?G ?H ?I ?J)(= ?F 0)))))
(assert(forall((?A Int)(?B Int)(?C Int)(?D Int)(?E Int)(?F Int)(?G Int)(?H Int)(?I Int)(?J Int)(?K Int)(?L Int)(?M Int)(?N Int)(?O Int))(=>(and (main_q1 ?A ?B ?C ?D ?E ?K ?L ?M ?N ?O)(and (and (and (and (<= ?H ?O) (>= ?H 0)) (<= ?G ?N)) (>= ?G 0)) (and (and (= ?K ?F) (= ?N ?I)) (= ?O ?J)))) (main_q2 ?A ?B ?C ?D ?E ?F ?G ?H ?I ?J))))
(assert(forall((?A Int)(?B Int)(?C Int)(?D Int)(?E Int)(?F Int)(?G Int)(?H Int)(?I Int)(?J Int)(?K Int)(?L Int)(?M Int)(?N Int)(?O Int))(=>(and (main_q0 ?A ?B ?C ?D ?E ?K ?L ?M ?N ?O)(and (> ?J 0) (> ?I 0))) (main_q1 ?A ?B ?C ?D ?E ?F ?G ?H ?I ?J))))
(assert(forall((?A Int)(?B Int)(?C Int)(?D Int)(?E Int)(?F Int)(?G Int)(?H Int)(?I Int)(?J Int))(=>(and (and (and (and (= ?A ?F) (= ?B ?G)) (= ?C ?H)) (= ?D ?I)) (= ?E ?J)) (main_q0 ?A ?B ?C ?D ?E ?F ?G ?H ?I ?J))))
(assert(forall((?A Int)(?B Int)(?C Int)(?D Int)(?E Int)(?F Int)(?G Int)(?H Int)(?I Int)(?J Int)(?K Int)(?L Int)(?M Int)(?N Int)(?O Int)(?P Int)(?Q Int)(?R Int)(?S Int)(?T Int)(?U Int))(=>(and (floodfill_q6 ?K ?L ?C ?A ?B ?D ?E ?M ?N ?O ?P ?Q ?R ?S)(and (= ?F 0) (and (and (and (and (and (= ?M ?T) (= ?N ?U)) (= ?O ?H)) (= ?Q ?G)) (= ?R ?I)) (= ?S ?J)))) (floodfill_q7 ?A ?B ?C ?D ?E ?F ?G ?H ?I ?J))))
(assert(forall((?A Int)(?B Int)(?C Int)(?D Int)(?E Int)(?F Int)(?G Int)(?H Int)(?I Int)(?J Int)(?K Int)(?L Int)(?M Int)(?N Int)(?O Int)(?P Int)(?Q Int)(?R Int)(?S Int)(?T Int)(?U Int))(=>(and (floodfill_q5 ?K ?L ?C ?A ?B ?D ?E ?M ?N ?O ?P ?Q ?R ?S)(and (= ?F (+ ?M ?N)) (and (and (and (and (and (= ?M ?T) (= ?N ?U)) (= ?O ?H)) (= ?Q ?G)) (= ?R ?I)) (= ?S ?J)))) (floodfill_q7 ?A ?B ?C ?D ?E ?F ?G ?H ?I ?J))))
(assert(forall((?A Int)(?B Int)(?C Int)(?D Int)(?E Int)(?F Int)(?G Int)(?H Int)(?I Int)(?J Int)(?K Int)(?L Int)(?M Int)(?N Int)(?O Int)(?P Int)(?Q Int)(?R Int)(?S Int)(?T Int)(?U Int))(=>(and (floodfill_q2 ?K ?L ?C ?A ?B ?D ?E ?M ?N ?O ?P ?Q ?R ?S)(and (= ?F 1) (and (and (and (and (and (= ?M ?T) (= ?N ?U)) (= ?O ?H)) (= ?Q ?G)) (= ?R ?I)) (= ?S ?J)))) (floodfill_q7 ?A ?B ?C ?D ?E ?F ?G ?H ?I ?J))))
(assert(forall((?A Int)(?B Int)(?C Int)(?D Int)(?E Int)(?F Int)(?G Int)(?H Int)(?I Int)(?J Int)(?K Int)(?L Int)(?M Int)(?N Int)(?O Int)(?P Int)(?Q Int)(?R Int)(?S Int)(?T Int)(?U Int))(=>(and (floodfill_q1 ?A ?B ?C ?D ?E ?F ?G ?O ?P ?Q ?R ?S ?T ?U)(and (not (and (= ?S 0) (= ?Q 0))) (and (and (and (and (and (and (= ?O ?H) (= ?P ?I)) (= ?Q ?J)) (= ?R ?K)) (= ?S ?L)) (= ?T ?M)) (= ?U ?N)))) (floodfill_q3 ?A ?B ?C ?D ?E ?F ?G ?H ?I ?J ?K ?L ?M ?N))))
(assert(forall((?A Int)(?B Int)(?C Int)(?D Int)(?E Int)(?F Int)(?G Int)(?H Int)(?I Int)(?J Int)(?K Int)(?L Int)(?M Int)(?N Int)(?O Int)(?P Int)(?Q Int)(?R Int)(?S Int)(?T Int)(?U Int))(=>(and (floodfill_q1 ?A ?B ?C ?D ?E ?F ?G ?O ?P ?Q ?R ?S ?T ?U)(and (and (= ?S 0) (= ?Q 0)) (and (and (and (and (and (and (= ?O ?H) (= ?P ?I)) (= ?Q ?J)) (= ?R ?K)) (= ?S ?L)) (= ?T ?M)) (= ?U ?N)))) (floodfill_q2 ?A ?B ?C ?D ?E ?F ?G ?H ?I ?J ?K ?L ?M ?N))))
(assert(forall((?A Int)(?B Int)(?C Int)(?D Int)(?E Int)(?F Int)(?G Int)(?H Int)(?I Int)(?J Int)(?K Int)(?L Int)(?M Int)(?N Int)(?O Int)(?P Int)(?Q Int)(?R Int)(?S Int)(?T Int)(?U Int))(=>(and (floodfill_q0 ?A ?B ?C ?D ?E ?F ?G ?O ?P ?Q ?R ?S ?T ?U)(and (not (or (or (or (< ?S 0) (< ?Q 0)) (> ?S ?U)) (> ?Q ?T))) (and (and (and (and (and (and (= ?O ?H) (= ?P ?I)) (= ?Q ?J)) (= ?R ?K)) (= ?S ?L)) (= ?T ?M)) (= ?U ?N)))) (floodfill_q1 ?A ?B ?C ?D ?E ?F ?G ?H ?I ?J ?K ?L ?M ?N))))
(assert(forall((?A Int)(?B Int)(?C Int)(?D Int)(?E Int)(?F Int)(?G Int)(?H Int)(?I Int)(?J Int)(?K Int)(?L Int)(?M Int)(?N Int)(?O Int)(?P Int)(?Q Int)(?R Int)(?S Int)(?T Int)(?U Int))(=>(and (floodfill_q0 ?A ?B ?C ?D ?E ?F ?G ?O ?P ?Q ?R ?S ?T ?U)(and (or (or (or (< ?S 0) (< ?Q 0)) (> ?S ?U)) (> ?Q ?T)) (and (and (and (and (and (and (= ?O ?H) (= ?P ?I)) (= ?Q ?J)) (= ?R ?K)) (= ?S ?L)) (= ?T ?M)) (= ?U ?N)))) (floodfill_q6 ?A ?B ?C ?D ?E ?F ?G ?H ?I ?J ?K ?L ?M ?N))))
(assert(forall((?A Int)(?B Int)(?C Int)(?D Int)(?E Int)(?F Int)(?G Int)(?H Int)(?I Int)(?J Int)(?K Int)(?L Int)(?M Int)(?N Int)(?O Int)(?P Int)(?Q Int)(?R Int)(?S Int)(?T Int)(?U Int)(?V Int)(?W Int)(?X Int)(?Y Int)(?Z Int)(?A1 Int)(?B1 Int)(?C1 Int)(?D1 Int)(?E1 Int))(=>(and (and (and (and (floodfill_q3 ?A ?B ?C ?D ?E ?F ?G ?O ?P ?Q ?R ?S ?T ?U)(and (and (and (= ?V (- ?S 1)) (= ?W ?Q)) (= ?X ?T)) (= ?Y ?U)))(floodfill_q7 ?Z ?V ?W ?X ?Y ?A1 ?B1 ?C1 ?D1 ?E1))(and (and (= ?A1 ?H) (= ?D1 ?M)) (= ?E1 ?N)))(and (and (and (= ?P ?I) (= ?Q ?J)) (= ?R ?K)) (= ?S ?L))) (floodfill_q4 ?A ?B ?C ?D ?E ?F ?G ?H ?I ?J ?K ?L ?M ?N))))
(assert(forall((?A Int)(?B Int)(?C Int)(?D Int)(?E Int)(?F Int)(?G Int)(?H Int)(?I Int)(?J Int)(?K Int)(?L Int)(?M Int)(?N Int)(?O Int)(?P Int)(?Q Int)(?R Int)(?S Int)(?T Int)(?U Int)(?V Int)(?W Int)(?X Int)(?Y Int)(?Z Int)(?A1 Int)(?B1 Int))(=>(and (and (floodfill_q3 ?O ?P ?Q ?R ?S ?T ?U ?V ?W ?X ?Y ?Z ?A1 ?B1)(and (and (and (= ?E (- ?Z 1)) (= ?C ?X)) (= ?F ?A1)) (= ?G ?B1)))(and (and (and (and (= ?D ?K) (= ?E ?L)) (= ?C ?J)) (= ?F ?M)) (= ?G ?N))) (floodfill_q0 ?A ?B ?C ?D ?E ?F ?G ?H ?I ?J ?K ?L ?M ?N))))
(assert(forall((?A Int)(?B Int)(?C Int)(?D Int)(?E Int)(?F Int)(?G Int)(?H Int)(?I Int)(?J Int)(?K Int)(?L Int)(?M Int)(?N Int)(?O Int)(?P Int)(?Q Int)(?R Int)(?S Int)(?T Int)(?U Int)(?V Int)(?W Int)(?X Int)(?Y Int)(?Z Int)(?A1 Int)(?B1 Int)(?C1 Int)(?D1 Int)(?E1 Int))(=>(and (and (and (and (floodfill_q4 ?A ?B ?C ?D ?E ?F ?G ?O ?P ?Q ?R ?S ?T ?U)(and (and (and (= ?V ?S) (= ?W (- ?Q 1))) (= ?X ?T)) (= ?Y ?U)))(floodfill_q7 ?Z ?V ?W ?X ?Y ?A1 ?B1 ?C1 ?D1 ?E1))(and (and (= ?A1 ?I) (= ?D1 ?M)) (= ?E1 ?N)))(and (and (and (= ?O ?H) (= ?Q ?J)) (= ?R ?K)) (= ?S ?L))) (floodfill_q5 ?A ?B ?C ?D ?E ?F ?G ?H ?I ?J ?K ?L ?M ?N))))
(assert(forall((?A Int)(?B Int)(?C Int)(?D Int)(?E Int)(?F Int)(?G Int)(?H Int)(?I Int)(?J Int)(?K Int)(?L Int)(?M Int)(?N Int)(?O Int)(?P Int)(?Q Int)(?R Int)(?S Int)(?T Int)(?U Int)(?V Int)(?W Int)(?X Int)(?Y Int)(?Z Int)(?A1 Int)(?B1 Int))(=>(and (and (floodfill_q4 ?O ?P ?Q ?R ?S ?T ?U ?V ?W ?X ?Y ?Z ?A1 ?B1)(and (and (and (= ?E ?Z) (= ?C (- ?X 1))) (= ?F ?A1)) (= ?G ?B1)))(and (and (and (and (= ?D ?K) (= ?E ?L)) (= ?C ?J)) (= ?F ?M)) (= ?G ?N))) (floodfill_q0 ?A ?B ?C ?D ?E ?F ?G ?H ?I ?J ?K ?L ?M ?N))))
(assert(forall((?A Int)(?B Int)(?C Int)(?D Int)(?E Int)(?F Int)(?G Int)(?H Int)(?I Int)(?J Int)(?K Int)(?L Int)(?M Int)(?N Int)(?O Int)(?P Int)(?Q Int)(?R Int)(?S Int)(?T Int)(?U Int)(?V Int)(?W Int)(?X Int)(?Y Int))(=>(and (and (and (and (main_q2 ?A ?B ?C ?D ?E ?K ?L ?M ?N ?O)(and (and (and (= ?P ?M) (= ?Q ?L)) (= ?R ?N)) (= ?S ?O)))(floodfill_q7 ?T ?P ?Q ?R ?S ?U ?V ?W ?X ?Y))(and (and (= ?U ?F) (= ?X ?I)) (= ?Y ?J)))(and (= ?L ?G) (= ?M ?H))) (main_q3 ?A ?B ?C ?D ?E ?F ?G ?H ?I ?J))))
(assert(forall((?A Int)(?B Int)(?C Int)(?D Int)(?E Int)(?F Int)(?G Int)(?H Int)(?I Int)(?J Int)(?K Int)(?L Int)(?M Int)(?N Int)(?O Int)(?P Int)(?Q Int)(?R Int)(?S Int)(?T Int)(?U Int)(?V Int)(?W Int)(?X Int))(=>(and (and (main_q2 ?O ?P ?Q ?R ?S ?T ?U ?V ?W ?X)(and (and (and (= ?E ?V) (= ?C ?U)) (= ?F ?W)) (= ?G ?X)))(and (and (and (and (= ?D ?K) (= ?E ?L)) (= ?C ?J)) (= ?F ?M)) (= ?G ?N))) (floodfill_q0 ?A ?B ?C ?D ?E ?F ?G ?H ?I ?J ?K ?L ?M ?N))))
(check-sat)
